Route #1: 1 50 34 3 80 12 26 22 57 91 17 92 1 
Route #2: 1 9 81 24 55 68 76 28 1 
Route #3: 1 33 78 51 20 63 11 46 48 62 1 
Route #4: 1 69 94 97 42 2 75 56 25 29 77 1 
Route #5: 1 31 88 52 18 96 37 58 27 1 
Route #6: 1 30 32 10 19 36 47 60 1 
Route #7: 1 1 79 35 71 65 66 90 70 6 1 
Route #8: 1 53 87 59 99 5 84 1 
Route #9: 1 89 83 61 38 98 95 13 1 
Route #10: 1 40 43 41 74 72 73 21 4 54 1 
Route #11: 1 7 49 82 93 100 14 1 
Route #12: 1 64 8 45 16 44 85 1 
Route #13: 1 39 67 23 15 1 
Route #14: 1 86 1 

Cost 1799.14
Time 2.0955


 * Another infos *

 Iterations: 101 Time: 2.0955 sec - 0.0349 min - 0.0006 horas
0.0000 h 0.0349 min
Problem dimension: 101
